c turning on binary mode checking
c parsing input formula with 6 variables and 9 clauses
c finished parsing
c detected empty clause; start verification via backward checking
c 9 of 9 clauses in core
c 2 of 3 lemmas in core using 12 resolution steps
c 0 RAT lemmas in core; 0 redundant literals in core lemmas
s VERIFIED
c verification time: 0.052 seconds
